This is Ipopt version 3.13.4, running with linear solver mumps.
NOTE: Other linear solvers might be more efficient (see Ipopt documentation).

Number of nonzeros in equality constraint Jacobian...:      960
Number of nonzeros in inequality constraint Jacobian.:        0
Number of nonzeros in Lagrangian Hessian.............:        0

Total number of variables............................:       60
                     variables with only lower bounds:        0
                variables with lower and upper bounds:       54
                     variables with only upper bounds:        0
Total number of equality constraints.................:       16
Total number of inequality constraints...............:        0
        inequality constraints with only lower bounds:        0
   inequality constraints with lower and upper bounds:        0
        inequality constraints with only upper bounds:        0

iter    objective    inf_pr   inf_du lg(mu)  ||d||  lg(rg) alpha_du alpha_pr  ls
   0  1.0000000e+00 2.87e-03 0.00e+00   0.0 0.00e+00    -  0.00e+00 0.00e+00   0
   1  1.0000000e+00 1.71e+00 1.37e+02  -0.9 3.46e-01    -  9.81e-01 1.00e+00f  1
   2  1.0000000e+00 8.32e-01 4.05e+03  -0.8 2.17e-01    -  1.00e+00 1.00e+00f  1
   3  1.0000000e+00 4.75e-01 1.01e+03  -0.8 9.47e-01    -  1.00e+00 2.50e-01h  3
   4  1.0000000e+00 3.79e+00 1.39e+03  -0.8 4.31e-01    -  1.00e+00 5.00e-01h  2
   5  1.0000000e+00 2.03e+00 4.81e+03  -0.8 8.10e-01    -  8.19e-01 5.00e-01h  2
   6  1.0000000e+00 1.52e+00 3.62e+02  -0.8 3.19e-01    -  1.00e+00 8.85e-01h  1
   7  1.0000000e+00 7.58e-01 3.68e+03  -0.8 4.20e-01    -  1.00e+00 5.00e-01f  2
   8  1.0000000e+00 1.52e-01 9.83e+03  -0.8 3.73e-01    -  1.00e+00 5.00e-01h  2
   9  1.0000000e+00 3.14e-01 3.26e+03  -0.8 2.92e-01    -  1.00e+00 1.00e+00h  1
iter    objective    inf_pr   inf_du lg(mu)  ||d||  lg(rg) alpha_du alpha_pr  ls
  10  1.0000000e+00 5.75e-02 6.35e+02  -0.8 2.36e-01    -  1.00e+00 1.00e+00F  1
  11  1.0000000e+00 1.06e-02 4.00e+02  -0.8 8.86e-02    -  1.00e+00 1.00e+00h  1
  12  1.0000000e+00 2.93e-03 5.45e+02  -0.8 1.53e-01    -  1.00e+00 1.00e+00h  1
  13  1.0000000e+00 2.43e-04 4.27e+01  -2.5 6.21e-03    -  1.00e+00 1.00e+00h  1
  14  1.0000000e+00 2.06e-05 3.99e-01  -4.1 2.73e-04    -  1.00e+00 1.00e+00h  1
  15  1.0000000e+00 4.07e-08 1.59e-06  -6.0 1.05e-04    -  1.00e+00 1.00e+00h  1

Number of Iterations....: 15

                                   (scaled)                 (unscaled)
Objective...............:   1.0000000000000000e+00    1.0000000000000000e+00
Dual infeasibility......:   1.5874608261103307e-06    1.5874608261103307e-06
Constraint violation....:   3.3743946070827714e-09    4.0695036396254380e-08
Complementarity.........:   9.4633514403834376e-07    9.4633514403834376e-07
Overall NLP error.......:   1.5874608261103307e-06    1.5874608261103307e-06


Number of objective function evaluations             = 31
Number of objective gradient evaluations             = 16
Number of equality constraint evaluations            = 31
Number of inequality constraint evaluations          = 0
Number of equality constraint Jacobian evaluations   = 16
Number of inequality constraint Jacobian evaluations = 0
Number of Lagrangian Hessian evaluations             = 0
Total CPU secs in IPOPT (w/o function evaluations)   =      2.730
Total CPU secs in NLP function evaluations           =    135.378

EXIT: Optimal Solution Found.
